NAME : local_1
TYPE : ATSP
DIMENSION : 68
EDGE_WEIGHT_TYPE : EXPLICIT
EDGE_WEIGHT_FORMAT : FULL_MATRIX
EDGE_WEIGHT_SECTION
0 10000000 10000000 10000000 860 10000000 10000000 10000000 10000000 975 10000000 10000000 10000000 228 10000000 991 10000000 10000000 10000000 10000000 10000000 10000000 10000000 10000000 10000000 10000000 592 10000000 10000000 314 10000000 10000000 10000000 10000000 10000000 994 10000000 10000000 10000000 10000000 715 10000000 10000000 10000000 10000000 10000000 10000000 10000000 591 10000000 10000000 10000000 10000000 10000000 10000000 10000000 10000000 10000000 10000000 10000000 10000000 10000000 10000000 10000000 10000000 10000000 10000000 505 
0 0 10000000 298 568 10000000 10000000 10000000 793 738 907 10000000 908 10000000 10000000 764 10000000 964 10000000 10000000 10000000 961 556 10000000 10000000 10000000 10000000 10000000 10000000 967 10000000 10000000 10000000 10000000 10000000 10000000 10000000 10000000 10000000 355 10000000 10000000 441 513 10000000 10000000 10000000 10000000 10000000 10000000 10000000 10000000 10000000 10000000 10000000 10000000 10000000 10000000 681 426 10000000 10000000 10000000 10000000 10000000 822 10000000 10000000 
0 10000000 0 10000000 10000000 957 799 10000000 10000000 10000000 10000000 871 10000000 913 10000000 10000000 10000000 10000000 622 10000000 10000000 10000000 10000000 10000000 10000000 214 811 10000000 10000000 10000000 992 10000000 10000000 10000000 10000000 10000000 10000000 10000000 10000000 10000000 425 483 10000000 10000000 10000000 10000000 10000000 10000000 10000000 10000000 10000000 10000000 10000000 10000000 10000000 10000000 10000000 10000000 10000000 10000000 10000000 10000000 10000000 10000000 10000000 10000000 746 10000000 
0 298 10000000 0 507 10000000 10000000 10000000 550 578 647 10000000 903 10000000 10000000 10000000 10000000 10000000 10000000 10000000 10000000 10000000 786 10000000 10000000 10000000 10000000 10000000 10000000 988 10000000 10000000 10000000 10000000 10000000 10000000 10000000 10000000 10000000 443 10000000 10000000 717 809 10000000 10000000 10000000 10000000 10000000 10000000 10000000 10000000 10000000 10000000 10000000 10000000 10000000 10000000 906 701 830 800 10000000 10000000 10000000 529 10000000 10000000 
0 568 10000000 507 0 10000000 10000000 10000000 912 246 605 10000000 10000000 902 10000000 935 10000000 10000000 10000000 10000000 10000000 10000000 10000000 10000000 10000000 10000000 10000000 10000000 10000000 584 10000000 10000000 10000000 10000000 10000000 10000000 10000000 10000000 10000000 857 10000000 10000000 711 884 10000000 10000000 10000000 10000000 10000000 10000000 10000000 10000000 10000000 10000000 10000000 10000000 10000000 10000000 10000000 944 10000000 689 10000000 10000000 10000000 681 10000000 597 
0 10000000 1035 10000000 10000000 0 296 454 726 10000000 10000000 929 837 10000000 10000000 10000000 10000000 10000000 706 10000000 690 10000000 10000000 10000000 10000000 10000000 10000000 10000000 10000000 10000000 10000000 452 329 10000000 10000000 10000000 659 10000000 10000000 10000000 10000000 929 10000000 10000000 10000000 10000000 10000000 10000000 10000000 10000000 10000000 10000000 10000000 10000000 10000000 10000000 10000000 10000000 10000000 10000000 765 10000000 10000000 10000000 10000000 10000000 10000000 10000000 
0 10000000 799 10000000 10000000 296 0 730 705 10000000 10000000 636 580 10000000 10000000 10000000 10000000 10000000 721 10000000 918 10000000 10000000 10000000 10000000 851 10000000 10000000 10000000 10000000 10000000 600 579 10000000 10000000 10000000 931 10000000 10000000 10000000 10000000 665 10000000 10000000 10000000 10000000 10000000 10000000 10000000 10000000 10000000 10000000 10000000 10000000 10000000 10000000 10000000 10000000 10000000 10000000 882 10000000 10000000 10000000 10000000 10000000 10000000 10000000 
0 10000000 10000000 10000000 10000000 454 730 0 974 10000000 10000000 10000000 10000000 10000000 10000000 10000000 10000000 10000000 774 10000000 320 10000000 10000000 10000000 10000000 10000000 10000000 10000000 10000000 10000000 10000000 658 410 10000000 10000000 10000000 292 10000000 10000000 10000000 10000000 10000000 10000000 10000000 10000000 10000000 10000000 10000000 10000000 10000000 10000000 10000000 10000000 10000000 10000000 10000000 10000000 10000000 10000000 10000000 814 10000000 10000000 10000000 10000000 10000000 10000000 10000000 
0 793 10000000 550 912 726 705 978 0 850 740 10000000 746 10000000 10000000 10000000 10000000 10000000 10000000 10000000 10000000 10000000 10000000 10000000 10000000 10000000 10000000 10000000 10000000 10000000 10000000 512 654 10000000 10000000 10000000 953 10000000 10000000 678 10000000 10000000 10000000 10000000 10000000 10000000 10000000 10000000 10000000 10000000 10000000 10000000 10000000 10000000 10000000 10000000 10000000 10000000 10000000 10000000 383 817 10000000 10000000 10000000 437 10000000 10000000 
0 738 10000000 578 246 10000000 10000000 10000000 850 0 406 10000000 10000000 964 10000000 10000000 10000000 10000000 10000000 10000000 10000000 10000000 10000000 10000000 10000000 10000000 10000000 10000000 10000000 674 10000000 10000000 10000000 10000000 10000000 10000000 10000000 10000000 10000000 979 10000000 10000000 950 10000000 10000000 10000000 10000000 10000000 10000000 10000000 10000000 10000000 10000000 10000000 10000000 10000000 10000000 10000000 10000000 10000000 964 452 10000000 10000000 10000000 530 10000000 591 
0 907 10000000 647 605 10000000 10000000 10000000 740 406 0 10000000 10000000 10000000 10000000 10000000 10000000 10000000 10000000 10000000 10000000 10000000 10000000 10000000 10000000 10000000 10000000 10000000 10000000 10000000 10000000 10000000 10000000 10000000 10000000 10000000 10000000 10000000 10000000 10000000 10000000 10000000 10000000 10000000 10000000 10000000 10000000 10000000 10000000 10000000 10000000 10000000 10000000 10000000 10000000 10000000 10000000 10000000 10000000 10000000 706 217 10000000 10000000 10000000 307 10000000 951 
0 10000000 871 10000000 10000000 929 636 10000000 10000000 10000000 10000000 0 351 10000000 10000000 10000000 10000000 10000000 10000000 10000000 10000000 10000000 963 10000000 10000000 759 10000000 10000000 10000000 10000000 696 10000000 10000000 10000000 10000000 10000000 10000000 977 563 887 969 424 10000000 10000000 10000000 10000000 10000000 10000000 10000000 10000000 10000000 10000000 10000000 559 890 10000000 10000000 10000000 10000000 10000000 10000000 10000000 10000000 10000000 10000000 10000000 597 10000000 
0 908 10000000 903 10000000 837 580 10000000 746 10000000 10000000 351 0 10000000 10000000 10000000 10000000 10000000 10000000 10000000 10000000 10000000 780 10000000 10000000 997 10000000 10000000 10000000 10000000 984 883 10000000 10000000 10000000 10000000 10000000 10000000 597 613 10000000 710 10000000 10000000 10000000 10000000 10000000 10000000 10000000 10000000 10000000 10000000 10000000 841 10000000 10000000 10000000 933 876 911 10000000 10000000 10000000 10000000 10000000 10000000 895 10000000 
0 10000000 913 10000000 902 10000000 10000000 10000000 10000000 964 10000000 10000000 10000000 0 10000000 10000000 10000000 10000000 10000000 10000000 10000000 10000000 10000000 10000000 10000000 862 574 10000000 10000000 358 10000000 10000000 10000000 10000000 10000000 10000000 10000000 10000000 10000000 10000000 555 10000000 10000000 10000000 10000000 10000000 10000000 10000000 807 10000000 10000000 10000000 10000000 10000000 10000000 10000000 10000000 10000000 10000000 10000000 10000000 10000000 10000000 10000000 10000000 10000000 998 438 
0 10000000 10000000 10000000 10000000 10000000 10000000 10000000 10000000 10000000 10000000 10000000 10000000 10000000 0 406 10000000 762 10000000 10000000 10000000 297 10000000 10000000 855 10000000 10000000 10000000 455 10000000 10000000 10000000 10000000 10000000 10000000 433 10000000 10000000 10000000 10000000 10000000 10000000 730 690 694 10000000 241 10000000 663 10000000 10000000 10000000 10000000 10000000 10000000 10000000 10000000 10000000 10000000 1069 10000000 10000000 10000000 10000000 10000000 10000000 10000000 10000000 
0 764 10000000 10000000 935 10000000 10000000 10000000 10000000 10000000 10000000 10000000 10000000 10000000 406 0 10000000 688 10000000 10000000 10000000 259 817 10000000 10000000 10000000 10000000 10000000 860 986 10000000 10000000 10000000 10000000 10000000 674 10000000 10000000 10000000 985 10000000 10000000 330 345 946 10000000 546 10000000 662 10000000 10000000 10000000 10000000 10000000 10000000 10000000 10000000 10000000 1014 642 10000000 10000000 10000000 10000000 10000000 10000000 10000000 10000000 
0 10000000 10000000 10000000 10000000 10000000 10000000 10000000 10000000 10000000 10000000 10000000 10000000 10000000 10000000 10000000 0 10000000 10000000 368 10000000 10000000 10000000 625 10000000 10000000 906 10000000 10000000 10000000 604 10000000 10000000 10000000 10000000 10000000 10000000 908 10000000 10000000 10000000 10000000 10000000 10000000 10000000 10000000 10000000 10000000 10000000 10000000 10000000 707 738 719 523 613 323 10000000 10000000 10000000 10000000 10000000 266 342 10000000 10000000 819 10000000 
0 964 10000000 10000000 10000000 10000000 10000000 10000000 10000000 10000000 10000000 10000000 10000000 10000000 762 688 10000000 0 10000000 10000000 10000000 675 620 10000000 10000000 10000000 10000000 10000000 10000000 10000000 10000000 10000000 10000000 876 753 10000000 10000000 10000000 10000000 986 10000000 10000000 717 533 712 810 640 10000000 10000000 10000000 10000000 10000000 10000000 10000000 10000000 10000000 10000000 738 559 573 10000000 10000000 10000000 10000000 10000000 10000000 10000000 10000000 
0 10000000 622 10000000 10000000 706 721 774 10000000 10000000 10000000 10000000 10000000 10000000 10000000 10000000 10000000 10000000 0 10000000 682 10000000 10000000 10000000 10000000 790 10000000 10000000 10000000 10000000 10000000 10000000 985 10000000 10000000 10000000 10000000 10000000 10000000 10000000 10000000 822 10000000 10000000 10000000 10000000 10000000 10000000 10000000 10000000 10000000 10000000 10000000 10000000 10000000 10000000 10000000 10000000 10000000 10000000 10000000 10000000 10000000 10000000 10000000 10000000 10000000 10000000 
0 10000000 10000000 10000000 10000000 10000000 10000000 10000000 10000000 10000000 10000000 10000000 10000000 10000000 10000000 10000000 368 10000000 10000000 0 10000000 10000000 10000000 932 10000000 10000000 732 10000000 10000000 10000000 734 10000000 10000000 10000000 10000000 913 10000000 10000000 10000000 10000000 10000000 10000000 10000000 10000000 10000000 10000000 10000000 10000000 803 10000000 10000000 10000000 934 964 822 865 140 10000000 10000000 10000000 10000000 10000000 249 389 10000000 10000000 872 10000000 
0 10000000 10000000 10000000 10000000 690 918 320 10000000 10000000 10000000 10000000 10000000 10000000 10000000 10000000 10000000 10000000 682 10000000 0 10000000 10000000 10000000 10000000 10000000 10000000 10000000 10000000 10000000 10000000 972 727 10000000 10000000 10000000 490 10000000 10000000 10000000 10000000 10000000 10000000 10000000 10000000 10000000 10000000 10000000 10000000 10000000 10000000 10000000 10000000 10000000 10000000 10000000 10000000 10000000 10000000 10000000 10000000 10000000 10000000 10000000 10000000 10000000 10000000 10000000 
0 961 10000000 10000000 10000000 10000000 10000000 10000000 10000000 10000000 10000000 10000000 10000000 10000000 297 259 10000000 675 10000000 10000000 10000000 0 977 10000000 10000000 10000000 10000000 10000000 706 10000000 10000000 10000000 10000000 10000000 10000000 674 10000000 10000000 10000000 10000000 10000000 10000000 522 504 745 10000000 383 10000000 792 10000000 10000000 10000000 10000000 10000000 10000000 10000000 10000000 10000000 10000000 804 10000000 10000000 10000000 10000000 10000000 10000000 10000000 10000000 
0 556 10000000 786 10000000 10000000 10000000 10000000 10000000 10000000 10000000 963 780 10000000 10000000 898 10000000 620 10000000 10000000 10000000 977 0 10000000 10000000 10000000 10000000 10000000 10000000 10000000 10000000 10000000 10000000 10000000 10000000 10000000 10000000 907 697 404 10000000 10000000 626 504 10000000 10000000 10000000 10000000 10000000 10000000 10000000 10000000 10000000 10000000 10000000 10000000 10000000 528 163 210 10000000 10000000 10000000 10000000 10000000 10000000 10000000 10000000 
0 10000000 10000000 10000000 10000000 10000000 10000000 10000000 10000000 10000000 10000000 10000000 10000000 10000000 10000000 10000000 625 10000000 10000000 932 10000000 10000000 10000000 0 10000000 10000000 10000000 10000000 10000000 10000000 10000000 10000000 10000000 10000000 10000000 10000000 10000000 970 10000000 10000000 10000000 10000000 10000000 10000000 10000000 10000000 10000000 10000000 10000000 954 923 622 369 10000000 805 179 841 10000000 10000000 10000000 10000000 10000000 811 614 10000000 10000000 10000000 10000000 
0 10000000 10000000 10000000 10000000 10000000 10000000 10000000 10000000 10000000 10000000 10000000 10000000 10000000 855 10000000 10000000 10000000 10000000 10000000 10000000 10000000 10000000 10000000 0 10000000 10000000 392 411 10000000 10000000 10000000 10000000 10000000 10000000 837 10000000 10000000 10000000 10000000 10000000 10000000 10000000 10000000 824 10000000 783 673 10000000 634 10000000 10000000 10000000 10000000 10000000 10000000 10000000 10000000 10000000 10000000 10000000 10000000 10000000 10000000 10000000 10000000 10000000 10000000 
0 10000000 214 10000000 10000000 10000000 851 10000000 10000000 10000000 10000000 759 997 862 10000000 10000000 10000000 10000000 790 10000000 10000000 10000000 10000000 10000000 10000000 0 640 10000000 10000000 10000000 781 10000000 10000000 10000000 10000000 10000000 10000000 10000000 10000000 10000000 333 361 10000000 10000000 10000000 10000000 10000000 10000000 10000000 10000000 10000000 10000000 10000000 858 10000000 10000000 10000000 10000000 10000000 10000000 10000000 10000000 10000000 10000000 10000000 10000000 536 10000000 
0 10000000 811 10000000 10000000 10000000 10000000 10000000 10000000 10000000 10000000 10000000 10000000 574 10000000 10000000 906 10000000 10000000 732 10000000 10000000 10000000 10000000 10000000 640 0 10000000 10000000 839 633 10000000 10000000 10000000 10000000 10000000 10000000 10000000 10000000 10000000 430 803 10000000 10000000 10000000 10000000 10000000 10000000 780 10000000 10000000 10000000 10000000 807 988 10000000 835 10000000 10000000 10000000 10000000 10000000 807 10000000 10000000 10000000 519 975 
0 10000000 10000000 10000000 10000000 10000000 10000000 10000000 10000000 10000000 10000000 10000000 10000000 10000000 10000000 10000000 10000000 10000000 10000000 10000000 10000000 10000000 10000000 10000000 392 10000000 10000000 0 725 10000000 10000000 10000000 10000000 10000000 10000000 985 10000000 10000000 10000000 10000000 10000000 10000000 10000000 10000000 10000000 10000000 10000000 746 10000000 470 10000000 10000000 885 10000000 10000000 10000000 10000000 10000000 10000000 10000000 10000000 10000000 10000000 924 10000000 10000000 10000000 10000000 
0 10000000 10000000 10000000 10000000 10000000 10000000 10000000 10000000 10000000 10000000 10000000 10000000 10000000 455 860 10000000 10000000 10000000 10000000 10000000 706 10000000 10000000 411 10000000 10000000 725 0 10000000 10000000 10000000 10000000 10000000 10000000 561 10000000 10000000 10000000 10000000 10000000 10000000 10000000 10000000 597 924 400 776 945 871 10000000 10000000 10000000 10000000 10000000 10000000 10000000 10000000 10000000 10000000 10000000 10000000 10000000 10000000 10000000 10000000 10000000 10000000 
0 967 10000000 988 584 10000000 10000000 10000000 10000000 674 10000000 10000000 10000000 358 10000000 986 10000000 10000000 10000000 10000000 10000000 10000000 10000000 10000000 10000000 10000000 839 10000000 10000000 0 10000000 10000000 10000000 10000000 10000000 10000000 10000000 10000000 10000000 10000000 853 10000000 933 10000000 10000000 10000000 10000000 10000000 784 10000000 10000000 10000000 10000000 10000000 10000000 10000000 10000000 10000000 10000000 10000000 10000000 10000000 10000000 10000000 10000000 10000000 10000000 245 
0 10000000 992 10000000 10000000 10000000 10000000 10000000 10000000 10000000 10000000 696 984 10000000 10000000 10000000 604 10000000 10000000 734 10000000 10000000 10000000 10000000 10000000 781 633 10000000 10000000 10000000 0 10000000 10000000 10000000 10000000 10000000 10000000 873 787 10000000 849 656 10000000 10000000 10000000 10000000 10000000 10000000 10000000 10000000 10000000 851 10000000 216 382 10000000 778 10000000 10000000 10000000 10000000 10000000 682 929 10000000 10000000 247 10000000 
0 10000000 10000000 10000000 10000000 452 600 658 512 10000000 10000000 10000000 883 10000000 10000000 10000000 10000000 10000000 10000000 10000000 972 10000000 10000000 10000000 10000000 10000000 10000000 10000000 10000000 10000000 10000000 0 249 10000000 10000000 10000000 679 10000000 10000000 10000000 10000000 10000000 10000000 10000000 10000000 10000000 10000000 10000000 10000000 10000000 10000000 10000000 10000000 10000000 10000000 10000000 10000000 10000000 10000000 10000000 474 10000000 10000000 10000000 10000000 843 10000000 10000000 
0 10000000 10000000 10000000 10000000 329 579 410 654 10000000 10000000 10000000 10000000 10000000 10000000 10000000 10000000 10000000 985 10000000 727 10000000 10000000 10000000 10000000 10000000 10000000 10000000 10000000 10000000 10000000 249 0 10000000 10000000 10000000 464 10000000 10000000 10000000 10000000 10000000 10000000 10000000 10000000 10000000 10000000 10000000 10000000 10000000 10000000 10000000 10000000 10000000 10000000 10000000 10000000 10000000 10000000 10000000 545 10000000 10000000 10000000 10000000 951 10000000 10000000 
0 10000000 10000000 10000000 10000000 10000000 10000000 10000000 10000000 10000000 10000000 10000000 10000000 10000000 10000000 10000000 10000000 876 10000000 10000000 10000000 10000000 10000000 10000000 10000000 10000000 10000000 10000000 10000000 10000000 10000000 10000000 10000000 0 297 10000000 10000000 711 10000000 10000000 10000000 10000000 10000000 10000000 10000000 833 10000000 870 10000000 10000000 421 766 10000000 10000000 10000000 10000000 10000000 785 10000000 10000000 10000000 10000000 10000000 10000000 163 10000000 10000000 10000000 
0 10000000 10000000 10000000 10000000 10000000 10000000 10000000 10000000 10000000 10000000 10000000 10000000 10000000 10000000 10000000 10000000 753 10000000 10000000 10000000 10000000 10000000 10000000 10000000 10000000 10000000 10000000 10000000 10000000 10000000 10000000 10000000 297 0 10000000 10000000 919 10000000 10000000 10000000 10000000 10000000 10000000 980 675 10000000 896 10000000 10000000 671 10000000 10000000 10000000 10000000 10000000 10000000 797 10000000 10000000 10000000 10000000 10000000 10000000 431 10000000 10000000 10000000 
0 10000000 10000000 10000000 10000000 10000000 10000000 10000000 10000000 10000000 10000000 10000000 10000000 10000000 433 674 10000000 10000000 10000000 913 10000000 674 10000000 10000000 837 10000000 10000000 985 561 10000000 10000000 10000000 10000000 10000000 10000000 0 10000000 10000000 10000000 10000000 10000000 10000000 984 1089 10000000 10000000 629 10000000 413 10000000 10000000 10000000 10000000 10000000 10000000 10000000 907 10000000 10000000 10000000 10000000 10000000 10000000 10000000 10000000 10000000 10000000 10000000 
0 10000000 10000000 10000000 10000000 659 931 292 953 10000000 10000000 10000000 10000000 10000000 10000000 10000000 10000000 10000000 10000000 10000000 490 10000000 10000000 10000000 10000000 10000000 10000000 10000000 10000000 10000000 10000000 679 464 10000000 10000000 10000000 0 10000000 10000000 10000000 10000000 10000000 10000000 10000000 10000000 10000000 10000000 10000000 10000000 10000000 10000000 10000000 10000000 10000000 10000000 10000000 10000000 10000000 10000000 10000000 696 10000000 10000000 10000000 10000000 10000000 10000000 10000000 
0 10000000 10000000 10000000 10000000 10000000 10000000 10000000 10000000 10000000 10000000 977 10000000 10000000 10000000 10000000 908 10000000 10000000 10000000 10000000 10000000 907 970 10000000 10000000 10000000 10000000 10000000 10000000 890 10000000 10000000 711 919 10000000 10000000 0 482 10000000 10000000 10000000 10000000 10000000 10000000 10000000 10000000 10000000 10000000 10000000 863 352 10000000 694 666 10000000 10000000 589 890 10000000 10000000 10000000 10000000 10000000 739 10000000 10000000 10000000 
0 10000000 10000000 10000000 10000000 10000000 10000000 10000000 10000000 10000000 10000000 563 597 10000000 10000000 10000000 10000000 10000000 10000000 10000000 10000000 10000000 697 10000000 10000000 10000000 10000000 10000000 10000000 10000000 787 10000000 10000000 10000000 10000000 10000000 10000000 482 0 856 10000000 938 10000000 10000000 10000000 10000000 10000000 10000000 10000000 10000000 10000000 791 10000000 588 785 10000000 10000000 533 726 881 10000000 10000000 10000000 10000000 10000000 10000000 862 10000000 
0 355 10000000 443 857 10000000 10000000 10000000 678 979 10000000 887 613 10000000 10000000 985 10000000 986 10000000 10000000 10000000 10000000 404 10000000 10000000 10000000 10000000 10000000 10000000 10000000 10000000 10000000 10000000 10000000 10000000 10000000 10000000 10000000 856 0 10000000 10000000 699 683 10000000 10000000 10000000 10000000 10000000 10000000 10000000 10000000 10000000 10000000 10000000 10000000 10000000 847 520 430 10000000 10000000 10000000 10000000 10000000 893 10000000 10000000 
0 10000000 425 10000000 10000000 10000000 10000000 10000000 10000000 10000000 10000000 969 10000000 555 10000000 10000000 10000000 10000000 10000000 10000000 10000000 10000000 10000000 10000000 10000000 333 430 10000000 10000000 853 849 10000000 10000000 10000000 10000000 10000000 10000000 10000000 10000000 10000000 0 642 10000000 10000000 10000000 10000000 10000000 10000000 10000000 10000000 10000000 10000000 10000000 977 10000000 10000000 10000000 10000000 10000000 10000000 10000000 10000000 10000000 10000000 10000000 10000000 628 879 
0 10000000 483 10000000 10000000 929 665 10000000 10000000 10000000 10000000 424 710 10000000 10000000 10000000 10000000 10000000 822 10000000 10000000 10000000 10000000 10000000 10000000 361 803 10000000 10000000 10000000 656 10000000 10000000 10000000 10000000 10000000 10000000 10000000 938 10000000 642 0 10000000 10000000 10000000 10000000 10000000 10000000 10000000 10000000 10000000 10000000 10000000 641 944 10000000 10000000 10000000 10000000 10000000 10000000 10000000 10000000 10000000 10000000 10000000 445 10000000 
0 441 10000000 717 711 10000000 10000000 10000000 10000000 950 10000000 10000000 10000000 10000000 730 330 10000000 717 10000000 10000000 10000000 522 626 10000000 10000000 10000000 10000000 10000000 10000000 933 10000000 10000000 10000000 10000000 10000000 984 10000000 10000000 10000000 699 10000000 10000000 0 190 10000000 10000000 829 10000000 862 10000000 10000000 10000000 10000000 10000000 10000000 10000000 10000000 10000000 727 423 10000000 10000000 10000000 10000000 10000000 10000000 10000000 10000000 
0 513 10000000 809 884 10000000 10000000 10000000 10000000 10000000 10000000 10000000 10000000 10000000 690 345 10000000 533 10000000 10000000 10000000 504 504 10000000 10000000 10000000 10000000 10000000 10000000 10000000 10000000 10000000 10000000 10000000 10000000 1069 10000000 10000000 10000000 683 10000000 10000000 190 0 10000000 10000000 742 10000000 944 10000000 10000000 10000000 10000000 10000000 10000000 10000000 10000000 947 582 309 10000000 10000000 10000000 10000000 10000000 10000000 10000000 10000000 
0 10000000 10000000 10000000 10000000 10000000 10000000 10000000 10000000 10000000 10000000 10000000 10000000 10000000 694 946 10000000 712 10000000 10000000 10000000 745 10000000 10000000 824 10000000 10000000 10000000 597 10000000 10000000 10000000 10000000 10000000 980 10000000 10000000 10000000 10000000 10000000 10000000 10000000 10000000 10000000 0 444 458 678 10000000 10000000 10000000 10000000 10000000 10000000 10000000 10000000 10000000 10000000 10000000 10000000 10000000 10000000 10000000 10000000 10000000 10000000 10000000 10000000 
0 10000000 10000000 10000000 10000000 10000000 10000000 10000000 10000000 10000000 10000000 10000000 10000000 10000000 10000000 10000000 10000000 810 10000000 10000000 10000000 10000000 10000000 10000000 10000000 10000000 10000000 10000000 924 10000000 10000000 10000000 10000000 833 675 10000000 10000000 10000000 10000000 10000000 10000000 10000000 10000000 10000000 444 0 818 535 10000000 950 10000000 10000000 10000000 10000000 10000000 10000000 10000000 10000000 10000000 10000000 10000000 10000000 10000000 10000000 928 10000000 10000000 10000000 
0 10000000 10000000 10000000 10000000 10000000 10000000 10000000 10000000 10000000 10000000 10000000 10000000 10000000 241 546 10000000 640 10000000 10000000 10000000 383 10000000 10000000 783 10000000 10000000 10000000 400 10000000 10000000 10000000 10000000 10000000 10000000 629 10000000 10000000 10000000 10000000 10000000 10000000 829 742 458 818 0 986 885 10000000 10000000 10000000 10000000 10000000 10000000 10000000 10000000 10000000 10000000 984 10000000 10000000 10000000 10000000 10000000 10000000 10000000 10000000 
0 10000000 10000000 10000000 10000000 10000000 10000000 10000000 10000000 10000000 10000000 10000000 10000000 10000000 10000000 10000000 10000000 10000000 10000000 10000000 10000000 10000000 10000000 10000000 673 10000000 10000000 746 790 10000000 10000000 10000000 10000000 870 896 10000000 10000000 10000000 10000000 10000000 10000000 10000000 10000000 10000000 678 535 917 0 10000000 419 863 10000000 939 10000000 10000000 10000000 10000000 10000000 10000000 10000000 10000000 10000000 10000000 10000000 901 10000000 10000000 10000000 
0 10000000 10000000 10000000 10000000 10000000 10000000 10000000 10000000 10000000 10000000 10000000 10000000 807 663 659 10000000 10000000 10000000 803 10000000 792 10000000 10000000 10000000 10000000 780 10000000 945 784 10000000 10000000 10000000 10000000 10000000 413 10000000 10000000 10000000 10000000 10000000 10000000 862 954 10000000 10000000 885 10000000 0 10000000 10000000 10000000 10000000 10000000 10000000 10000000 845 10000000 10000000 10000000 10000000 10000000 10000000 10000000 10000000 10000000 10000000 10000000 
0 10000000 10000000 10000000 10000000 10000000 10000000 10000000 10000000 10000000 10000000 10000000 10000000 10000000 10000000 10000000 10000000 10000000 10000000 10000000 10000000 10000000 10000000 954 634 10000000 10000000 470 893 10000000 10000000 10000000 10000000 10000000 10000000 10000000 10000000 10000000 10000000 10000000 10000000 10000000 10000000 10000000 10000000 950 10000000 419 10000000 0 931 10000000 609 10000000 10000000 887 10000000 10000000 10000000 10000000 10000000 10000000 10000000 938 10000000 10000000 10000000 10000000 
0 10000000 10000000 10000000 10000000 10000000 10000000 10000000 10000000 10000000 10000000 10000000 10000000 10000000 10000000 10000000 10000000 10000000 10000000 10000000 10000000 10000000 10000000 923 10000000 10000000 10000000 10000000 10000000 10000000 10000000 10000000 10000000 421 671 10000000 10000000 863 10000000 10000000 10000000 10000000 10000000 10000000 10000000 10000000 10000000 863 10000000 931 0 737 882 10000000 10000000 10000000 10000000 10000000 10000000 10000000 10000000 10000000 10000000 10000000 275 10000000 10000000 10000000 
0 10000000 10000000 10000000 10000000 10000000 10000000 10000000 10000000 10000000 10000000 10000000 10000000 10000000 10000000 10000000 707 10000000 10000000 10000000 10000000 10000000 10000000 622 10000000 10000000 10000000 10000000 10000000 10000000 851 10000000 10000000 766 10000000 10000000 10000000 352 791 10000000 10000000 10000000 10000000 10000000 10000000 10000000 10000000 10000000 10000000 10000000 737 0 820 761 564 765 968 925 10000000 10000000 10000000 10000000 972 872 734 10000000 10000000 10000000 
0 10000000 10000000 10000000 10000000 10000000 10000000 10000000 10000000 10000000 10000000 10000000 10000000 10000000 10000000 10000000 738 10000000 10000000 934 10000000 10000000 10000000 369 10000000 10000000 10000000 885 10000000 10000000 10000000 10000000 10000000 10000000 10000000 10000000 10000000 10000000 10000000 10000000 10000000 10000000 10000000 10000000 10000000 10000000 10000000 939 10000000 609 882 806 0 10000000 10000000 287 823 10000000 10000000 10000000 10000000 10000000 889 550 10000000 10000000 10000000 10000000 
0 10000000 10000000 10000000 10000000 10000000 10000000 10000000 10000000 10000000 10000000 559 841 10000000 10000000 10000000 719 10000000 10000000 904 10000000 10000000 10000000 10000000 10000000 858 807 10000000 10000000 10000000 216 10000000 10000000 10000000 10000000 10000000 10000000 694 588 10000000 977 641 10000000 10000000 10000000 10000000 10000000 10000000 10000000 10000000 10000000 761 10000000 0 354 10000000 1050 10000000 10000000 10000000 10000000 10000000 852 10000000 10000000 10000000 355 10000000 
0 10000000 10000000 10000000 10000000 10000000 10000000 10000000 10000000 10000000 10000000 890 10000000 10000000 10000000 10000000 523 10000000 10000000 822 10000000 10000000 10000000 805 10000000 10000000 988 10000000 10000000 10000000 382 10000000 10000000 10000000 10000000 10000000 10000000 666 785 10000000 10000000 944 10000000 10000000 10000000 10000000 10000000 10000000 10000000 10000000 10000000 564 10000000 354 0 900 817 10000000 10000000 10000000 10000000 10000000 702 851 10000000 10000000 611 10000000 
0 10000000 10000000 10000000 10000000 10000000 10000000 10000000 10000000 10000000 10000000 10000000 10000000 10000000 10000000 10000000 613 10000000 10000000 865 10000000 10000000 10000000 179 10000000 10000000 10000000 10000000 10000000 10000000 10000000 10000000 10000000 10000000 10000000 10000000 10000000 10000000 10000000 10000000 10000000 10000000 10000000 10000000 10000000 10000000 10000000 10000000 10000000 887 10000000 765 287 10000000 900 0 769 10000000 10000000 10000000 10000000 10000000 753 517 10000000 10000000 10000000 10000000 
0 10000000 10000000 10000000 10000000 10000000 10000000 10000000 10000000 10000000 10000000 10000000 10000000 10000000 10000000 10000000 323 10000000 10000000 140 10000000 10000000 10000000 841 10000000 10000000 835 10000000 10000000 10000000 778 10000000 10000000 10000000 10000000 907 10000000 10000000 10000000 10000000 10000000 10000000 10000000 10000000 10000000 10000000 10000000 10000000 919 10000000 10000000 968 823 991 817 769 0 10000000 10000000 10000000 10000000 10000000 247 278 10000000 10000000 938 10000000 
0 10000000 10000000 10000000 10000000 10000000 10000000 10000000 10000000 10000000 10000000 10000000 933 10000000 10000000 10000000 10000000 738 10000000 10000000 10000000 10000000 528 10000000 10000000 10000000 10000000 10000000 10000000 10000000 10000000 10000000 10000000 785 797 10000000 10000000 589 533 847 10000000 10000000 10000000 947 10000000 10000000 10000000 10000000 10000000 10000000 10000000 925 10000000 10000000 10000000 10000000 10000000 0 428 714 10000000 10000000 10000000 10000000 900 10000000 10000000 10000000 
0 681 10000000 906 10000000 10000000 10000000 10000000 10000000 10000000 10000000 10000000 876 10000000 10000000 898 10000000 559 10000000 10000000 10000000 10000000 163 10000000 10000000 10000000 10000000 10000000 10000000 10000000 10000000 10000000 10000000 10000000 10000000 10000000 10000000 890 726 520 10000000 10000000 727 582 10000000 10000000 10000000 10000000 10000000 10000000 10000000 10000000 10000000 10000000 10000000 10000000 10000000 428 0 313 10000000 10000000 10000000 10000000 10000000 10000000 10000000 10000000 
0 426 10000000 701 944 10000000 10000000 10000000 10000000 10000000 10000000 10000000 911 10000000 1011 642 10000000 573 10000000 10000000 10000000 804 210 10000000 10000000 10000000 10000000 10000000 10000000 10000000 10000000 10000000 10000000 10000000 10000000 10000000 10000000 10000000 881 430 10000000 10000000 423 309 10000000 10000000 984 10000000 10000000 10000000 10000000 10000000 10000000 10000000 10000000 10000000 10000000 714 313 0 10000000 10000000 10000000 10000000 10000000 10000000 10000000 10000000 
0 10000000 10000000 830 10000000 765 882 814 383 964 706 10000000 10000000 10000000 10000000 10000000 10000000 10000000 10000000 10000000 10000000 10000000 10000000 10000000 10000000 10000000 10000000 10000000 10000000 10000000 10000000 474 545 10000000 10000000 10000000 696 10000000 10000000 10000000 10000000 10000000 10000000 10000000 10000000 10000000 10000000 10000000 10000000 10000000 10000000 10000000 10000000 10000000 10000000 10000000 10000000 10000000 10000000 10000000 0 734 10000000 10000000 10000000 444 10000000 10000000 
0 10000000 10000000 800 689 10000000 10000000 10000000 817 452 217 10000000 10000000 10000000 10000000 10000000 10000000 10000000 10000000 10000000 10000000 10000000 10000000 10000000 10000000 10000000 10000000 10000000 10000000 10000000 10000000 10000000 10000000 10000000 10000000 10000000 10000000 10000000 10000000 10000000 10000000 10000000 10000000 10000000 10000000 10000000 10000000 10000000 10000000 10000000 10000000 10000000 10000000 10000000 10000000 10000000 10000000 10000000 10000000 10000000 734 0 10000000 10000000 10000000 391 10000000 901 
0 10000000 10000000 10000000 10000000 10000000 10000000 10000000 10000000 10000000 10000000 10000000 10000000 10000000 10000000 10000000 266 10000000 10000000 249 10000000 10000000 10000000 811 10000000 10000000 807 10000000 10000000 10000000 682 10000000 10000000 10000000 10000000 10000000 10000000 10000000 10000000 10000000 10000000 10000000 10000000 10000000 10000000 10000000 10000000 10000000 10000000 10000000 10000000 972 889 852 702 753 247 10000000 10000000 10000000 10000000 10000000 0 388 10000000 10000000 843 10000000 
0 10000000 10000000 10000000 10000000 10000000 10000000 10000000 10000000 10000000 10000000 10000000 10000000 10000000 10000000 10000000 342 10000000 10000000 389 10000000 10000000 10000000 614 10000000 10000000 10000000 965 10000000 10000000 929 10000000 10000000 10000000 10000000 10000000 10000000 10000000 10000000 10000000 10000000 10000000 10000000 10000000 10000000 10000000 10000000 10000000 10000000 925 10000000 872 550 10000000 851 517 278 10000000 10000000 10000000 10000000 10000000 388 0 10000000 10000000 10000000 10000000 
0 10000000 10000000 10000000 10000000 10000000 10000000 10000000 10000000 10000000 10000000 10000000 10000000 10000000 10000000 10000000 10000000 10000000 10000000 10000000 10000000 10000000 10000000 10000000 10000000 10000000 10000000 10000000 10000000 10000000 10000000 10000000 10000000 163 431 10000000 10000000 739 10000000 10000000 10000000 10000000 10000000 10000000 10000000 928 10000000 901 10000000 10000000 275 734 10000000 10000000 10000000 10000000 10000000 900 10000000 10000000 10000000 10000000 10000000 10000000 0 10000000 10000000 10000000 
0 822 10000000 529 681 10000000 10000000 10000000 437 530 307 10000000 10000000 10000000 10000000 10000000 10000000 10000000 10000000 10000000 10000000 10000000 10000000 10000000 10000000 10000000 10000000 10000000 10000000 10000000 10000000 843 980 10000000 10000000 10000000 10000000 10000000 10000000 893 10000000 10000000 10000000 10000000 10000000 10000000 10000000 10000000 10000000 10000000 10000000 10000000 10000000 10000000 10000000 10000000 10000000 10000000 10000000 10000000 444 391 10000000 10000000 10000000 0 10000000 10000000 
0 10000000 746 10000000 10000000 10000000 10000000 10000000 10000000 10000000 10000000 597 895 998 10000000 10000000 819 10000000 10000000 872 10000000 10000000 10000000 10000000 10000000 536 519 10000000 10000000 10000000 247 10000000 10000000 10000000 10000000 10000000 10000000 10000000 862 10000000 628 445 10000000 10000000 10000000 10000000 10000000 10000000 10000000 10000000 10000000 10000000 10000000 355 611 10000000 938 10000000 10000000 10000000 10000000 10000000 843 10000000 10000000 10000000 0 10000000 
0 10000000 10000000 10000000 10000000 10000000 10000000 10000000 10000000 10000000 10000000 10000000 10000000 10000000 10000000 10000000 10000000 10000000 10000000 10000000 10000000 10000000 10000000 10000000 10000000 10000000 10000000 10000000 10000000 10000000 10000000 10000000 10000000 10000000 10000000 10000000 10000000 10000000 10000000 10000000 10000000 10000000 10000000 10000000 10000000 10000000 10000000 10000000 10000000 10000000 10000000 10000000 10000000 10000000 10000000 10000000 10000000 10000000 10000000 10000000 10000000 10000000 10000000 10000000 10000000 10000000 10000000 0 
EOF